11 965
525 7 445 7 286 10
535 8 492 8 398 9 279 10 184 14 58 26 897 50
525 7 482 7 365 7 115 9 940 13
525 7 482 7 365 7 115 9 940 13
525 7 479 7 357 7 112 12
525 7 482 7 365 7 115 9 949 13
525 7 482 7 394 7 212 9 29 11 822 15 623 21
525 7 484 7 368 7 123 9 857 11 631 18
525 7 505 7 381 7 218 9 50 11 850 15 664 21
525 7 482 7 365 7 115 9 943 13
525 7 445 7 264 7 63 9 889 11 721 18
